Running VLSI (1).mzn with ins-25.dzn
height = 32
width = 32

x = [25, 22, 19, 28, 16, 13, 10, 7, 28, 10, 6, 3, 4, 0, 13, 6, 16, 19, 0, 22, 0, 0, 0, 25, 28, 3, 4]
y = [5, 7, 8, 14, 9, 10, 14, 17, 3, 0, 7, 4, 20, 6, 0, 0, 0, 0, 21, 0, 27, 0, 17, 0, 0, 0, 17]

W = [3, 3, 3, 4, 3, 3, 3, 3, 4, 3, 4, 3, 3, 3, 3, 4, 3, 3, 4, 3, 4, 3, 4, 3, 4, 3, 3]
H = [27, 25, 24, 18, 23, 22, 18, 15, 11, 14, 10, 13, 12, 11, 10, 7, 9, 8, 6, 7, 5, 6, 4, 5, 3, 4, 3]
----------
==========
%%%mzn-stat: initTime=0.102
%%%mzn-stat: solveTime=1.318
%%%mzn-stat: solutions=1
%%%mzn-stat: variables=8836
%%%mzn-stat: propagators=11000
%%%mzn-stat: propagations=35304186
%%%mzn-stat: nodes=14340
%%%mzn-stat: failures=7147
%%%mzn-stat: restarts=0
%%%mzn-stat: peakDepth=71
%%%mzn-stat-end
Finished in 2s 788msec